certificates/rado_a21_c12_N235.cnf
c Rad2 upper bound instance: x1 + 21*x2 - x3 = 12, interval [1,235]
p cnf 235 2662
1 10 0
-1 -10 0
1 2 31 0
-1 -2 -31 0
1 3 52 0
-1 -3 -52 0
1 4 73 0
-1 -4 -73 0
1 5 94 0
-1 -5 -94 0
1 6 115 0
-1 -6 -115 0
1 7 136 0
-1 -7 -136 0
1 8 157 0
-1 -8 -157 0
1 9 178 0
-1 -9 -178 0
1 10 199 0
-1 -10 -199 0
1 11 220 0
-1 -11 -220 0
1 2 11 0
-1 -2 -11 0
2 32 0
-2 -32 0
2 3 53 0
-2 -3 -53 0
2 4 74 0
-2 -4 -74 0
2 5 95 0
-2 -5 -95 0
2 6 116 0
-2 -6 -116 0
2 7 137 0
-2 -7 -137 0
2 8 158 0
-2 -8 -158 0
2 9 179 0
-2 -9 -179 0
2 10 200 0
-2 -10 -200 0
2 11 221 0
-2 -11 -221 0
1 3 12 0
-1 -3 -12 0
2 3 33 0
-2 -3 -33 0
3 54 0
-3 -54 0
3 4 75 0
-3 -4 -75 0
3 5 96 0
-3 -5 -96 0
3 6 117 0
-3 -6 -117 0
3 7 138 0
-3 -7 -138 0
3 8 159 0
-3 -8 -159 0
3 9 180 0
-3 -9 -180 0
3 10 201 0
-3 -10 -201 0
3 11 222 0
-3 -11 -222 0
1 4 13 0
-1 -4 -13 0
2 4 34 0
-2 -4 -34 0
3 4 55 0
-3 -4 -55 0
4 76 0
-4 -76 0
4 5 97 0
-4 -5 -97 0
4 6 118 0
-4 -6 -118 0
4 7 139 0
-4 -7 -139 0
4 8 160 0
-4 -8 -160 0
4 9 181 0
-4 -9 -181 0
4 10 202 0
-4 -10 -202 0
4 11 223 0
-4 -11 -223 0
1 5 14 0
-1 -5 -14 0
2 5 35 0
-2 -5 -35 0
3 5 56 0
-3 -5 -56 0
4 5 77 0
-4 -5 -77 0
5 98 0
-5 -98 0
5 6 119 0
-5 -6 -119 0
5 7 140 0
-5 -7 -140 0
5 8 161 0
-5 -8 -161 0
5 9 182 0
-5 -9 -182 0
5 10 203 0
-5 -10 -203 0
5 11 224 0
-5 -11 -224 0
1 6 15 0
-1 -6 -15 0
2 6 36 0
-2 -6 -36 0
3 6 57 0
-3 -6 -57 0
4 6 78 0
-4 -6 -78 0
5 6 99 0
-5 -6 -99 0
6 120 0
-6 -120 0
6 7 141 0
-6 -7 -141 0
6 8 162 0
-6 -8 -162 0
6 9 183 0
-6 -9 -183 0
6 10 204 0
-6 -10 -204 0
6 11 225 0
-6 -11 -225 0
1 7 16 0
-1 -7 -16 0
2 7 37 0
-2 -7 -37 0
3 7 58 0
-3 -7 -58 0
4 7 79 0
-4 -7 -79 0
5 7 100 0
-5 -7 -100 0
6 7 121 0
-6 -7 -121 0
7 142 0
-7 -142 0
7 8 163 0
-7 -8 -163 0
7 9 184 0
-7 -9 -184 0
7 10 205 0
-7 -10 -205 0
7 11 226 0
-7 -11 -226 0
1 8 17 0
-1 -8 -17 0
2 8 38 0
-2 -8 -38 0
3 8 59 0
-3 -8 -59 0
4 8 80 0
-4 -8 -80 0
5 8 101 0
-5 -8 -101 0
6 8 122 0
-6 -8 -122 0
7 8 143 0
-7 -8 -143 0
8 164 0
-8 -164 0
8 9 185 0
-8 -9 -185 0
8 10 206 0
-8 -10 -206 0
8 11 227 0
-8 -11 -227 0
1 9 18 0
-1 -9 -18 0
2 9 39 0
-2 -9 -39 0
3 9 60 0
-3 -9 -60 0
4 9 81 0
-4 -9 -81 0
5 9 102 0
-5 -9 -102 0
6 9 123 0
-6 -9 -123 0
7 9 144 0
-7 -9 -144 0
8 9 165 0
-8 -9 -165 0
9 186 0
-9 -186 0
9 10 207 0
-9 -10 -207 0
9 11 228 0
-9 -11 -228 0
1 10 19 0
-1 -10 -19 0
2 10 40 0
-2 -10 -40 0
3 10 61 0
-3 -10 -61 0
4 10 82 0
-4 -10 -82 0
5 10 103 0
-5 -10 -103 0
6 10 124 0
-6 -10 -124 0
7 10 145 0
-7 -10 -145 0
8 10 166 0
-8 -10 -166 0
9 10 187 0
-9 -10 -187 0
10 208 0
-10 -208 0
10 11 229 0
-10 -11 -229 0
1 11 20 0
-1 -11 -20 0
2 11 41 0
-2 -11 -41 0
3 11 62 0
-3 -11 -62 0
4 11 83 0
-4 -11 -83 0
5 11 104 0
-5 -11 -104 0
6 11 125 0
-6 -11 -125 0
7 11 146 0
-7 -11 -146 0
8 11 167 0
-8 -11 -167 0
9 11 188 0
-9 -11 -188 0
10 11 209 0
-10 -11 -209 0
11 230 0
-11 -230 0
1 12 21 0
-1 -12 -21 0
2 12 42 0
-2 -12 -42 0
3 12 63 0
-3 -12 -63 0
4 12 84 0
-4 -12 -84 0
5 12 105 0
-5 -12 -105 0
6 12 126 0
-6 -12 -126 0
7 12 147 0
-7 -12 -147 0
8 12 168 0
-8 -12 -168 0
9 12 189 0
-9 -12 -189 0
10 12 210 0
-10 -12 -210 0
11 12 231 0
-11 -12 -231 0
1 13 22 0
-1 -13 -22 0
2 13 43 0
-2 -13 -43 0
3 13 64 0
-3 -13 -64 0
4 13 85 0
-4 -13 -85 0
5 13 106 0
-5 -13 -106 0
6 13 127 0
-6 -13 -127 0
7 13 148 0
-7 -13 -148 0
8 13 169 0
-8 -13 -169 0
9 13 190 0
-9 -13 -190 0
10 13 211 0
-10 -13 -211 0
11 13 232 0
-11 -13 -232 0
1 14 23 0
-1 -14 -23 0
2 14 44 0
-2 -14 -44 0
3 14 65 0
-3 -14 -65 0
4 14 86 0
-4 -14 -86 0
5 14 107 0
-5 -14 -107 0
6 14 128 0
-6 -14 -128 0
7 14 149 0
-7 -14 -149 0
8 14 170 0
-8 -14 -170 0
9 14 191 0
-9 -14 -191 0
10 14 212 0
-10 -14 -212 0
11 14 233 0
-11 -14 -233 0
1 15 24 0
-1 -15 -24 0
2 15 45 0
-2 -15 -45 0
3 15 66 0
-3 -15 -66 0
4 15 87 0
-4 -15 -87 0
5 15 108 0
-5 -15 -108 0
6 15 129 0
-6 -15 -129 0
7 15 150 0
-7 -15 -150 0
8 15 171 0
-8 -15 -171 0
9 15 192 0
-9 -15 -192 0
10 15 213 0
-10 -15 -213 0
11 15 234 0
-11 -15 -234 0
1 16 25 0
-1 -16 -25 0
2 16 46 0
-2 -16 -46 0
3 16 67 0
-3 -16 -67 0
4 16 88 0
-4 -16 -88 0
5 16 109 0
-5 -16 -109 0
6 16 130 0
-6 -16 -130 0
7 16 151 0
-7 -16 -151 0
8 16 172 0
-8 -16 -172 0
9 16 193 0
-9 -16 -193 0
10 16 214 0
-10 -16 -214 0
11 16 235 0
-11 -16 -235 0
1 17 26 0
-1 -17 -26 0
2 17 47 0
-2 -17 -47 0
3 17 68 0
-3 -17 -68 0
4 17 89 0
-4 -17 -89 0
5 17 110 0
-5 -17 -110 0
6 17 131 0
-6 -17 -131 0
7 17 152 0
-7 -17 -152 0
8 17 173 0
-8 -17 -173 0
9 17 194 0
-9 -17 -194 0
10 17 215 0
-10 -17 -215 0
1 18 27 0
-1 -18 -27 0
2 18 48 0
-2 -18 -48 0
3 18 69 0
-3 -18 -69 0
4 18 90 0
-4 -18 -90 0
5 18 111 0
-5 -18 -111 0
6 18 132 0
-6 -18 -132 0
7 18 153 0
-7 -18 -153 0
8 18 174 0
-8 -18 -174 0
9 18 195 0
-9 -18 -195 0
10 18 216 0
-10 -18 -216 0
1 19 28 0
-1 -19 -28 0
2 19 49 0
-2 -19 -49 0
3 19 70 0
-3 -19 -70 0
4 19 91 0
-4 -19 -91 0
5 19 112 0
-5 -19 -112 0
6 19 133 0
-6 -19 -133 0
7 19 154 0
-7 -19 -154 0
8 19 175 0
-8 -19 -175 0
9 19 196 0
-9 -19 -196 0
10 19 217 0
-10 -19 -217 0
1 20 29 0
-1 -20 -29 0
2 20 50 0
-2 -20 -50 0
3 20 71 0
-3 -20 -71 0
4 20 92 0
-4 -20 -92 0
5 20 113 0
-5 -20 -113 0
6 20 134 0
-6 -20 -134 0
7 20 155 0
-7 -20 -155 0
8 20 176 0
-8 -20 -176 0
9 20 197 0
-9 -20 -197 0
10 20 218 0
-10 -20 -218 0
1 21 30 0
-1 -21 -30 0
2 21 51 0
-2 -21 -51 0
3 21 72 0
-3 -21 -72 0
4 21 93 0
-4 -21 -93 0
5 21 114 0
-5 -21 -114 0
6 21 135 0
-6 -21 -135 0
7 21 156 0
-7 -21 -156 0
8 21 177 0
-8 -21 -177 0
9 21 198 0
-9 -21 -198 0
10 21 219 0
-10 -21 -219 0
1 22 31 0
-1 -22 -31 0
2 22 52 0
-2 -22 -52 0
3 22 73 0
-3 -22 -73 0
4 22 94 0
-4 -22 -94 0
5 22 115 0
-5 -22 -115 0
6 22 136 0
-6 -22 -136 0
7 22 157 0
-7 -22 -157 0
8 22 178 0
-8 -22 -178 0
9 22 199 0
-9 -22 -199 0
10 22 220 0
-10 -22 -220 0
1 23 32 0
-1 -23 -32 0
2 23 53 0
-2 -23 -53 0
3 23 74 0
-3 -23 -74 0
4 23 95 0
-4 -23 -95 0
5 23 116 0
-5 -23 -116 0
6 23 137 0
-6 -23 -137 0
7 23 158 0
-7 -23 -158 0
8 23 179 0
-8 -23 -179 0
9 23 200 0
-9 -23 -200 0
10 23 221 0
-10 -23 -221 0
1 24 33 0
-1 -24 -33 0
2 24 54 0
-2 -24 -54 0
3 24 75 0
-3 -24 -75 0
4 24 96 0
-4 -24 -96 0
5 24 117 0
-5 -24 -117 0
6 24 138 0
-6 -24 -138 0
7 24 159 0
-7 -24 -159 0
8 24 180 0
-8 -24 -180 0
9 24 201 0
-9 -24 -201 0
10 24 222 0
-10 -24 -222 0
1 25 34 0
-1 -25 -34 0
2 25 55 0
-2 -25 -55 0
3 25 76 0
-3 -25 -76 0
4 25 97 0
-4 -25 -97 0
5 25 118 0
-5 -25 -118 0
6 25 139 0
-6 -25 -139 0
7 25 160 0
-7 -25 -160 0
8 25 181 0
-8 -25 -181 0
9 25 202 0
-9 -25 -202 0
10 25 223 0
-10 -25 -223 0
1 26 35 0
-1 -26 -35 0
2 26 56 0
-2 -26 -56 0
3 26 77 0
-3 -26 -77 0
4 26 98 0
-4 -26 -98 0
5 26 119 0
-5 -26 -119 0
6 26 140 0
-6 -26 -140 0
7 26 161 0
-7 -26 -161 0
8 26 182 0
-8 -26 -182 0
9 26 203 0
-9 -26 -203 0
10 26 224 0
-10 -26 -224 0
1 27 36 0
-1 -27 -36 0
2 27 57 0
-2 -27 -57 0
3 27 78 0
-3 -27 -78 0
4 27 99 0
-4 -27 -99 0
5 27 120 0
-5 -27 -120 0
6 27 141 0
-6 -27 -141 0
7 27 162 0
-7 -27 -162 0
8 27 183 0
-8 -27 -183 0
9 27 204 0
-9 -27 -204 0
10 27 225 0
-10 -27 -225 0
1 28 37 0
-1 -28 -37 0
2 28 58 0
-2 -28 -58 0
3 28 79 0
-3 -28 -79 0
4 28 100 0
-4 -28 -100 0
5 28 121 0
-5 -28 -121 0
6 28 142 0
-6 -28 -142 0
7 28 163 0
-7 -28 -163 0
8 28 184 0
-8 -28 -184 0
9 28 205 0
-9 -28 -205 0
10 28 226 0
-10 -28 -226 0
1 29 38 0
-1 -29 -38 0
2 29 59 0
-2 -29 -59 0
3 29 80 0
-3 -29 -80 0
4 29 101 0
-4 -29 -101 0
5 29 122 0
-5 -29 -122 0
6 29 143 0
-6 -29 -143 0
7 29 164 0
-7 -29 -164 0
8 29 185 0
-8 -29 -185 0
9 29 206 0
-9 -29 -206 0
10 29 227 0
-10 -29 -227 0
1 30 39 0
-1 -30 -39 0
2 30 60 0
-2 -30 -60 0
3 30 81 0
-3 -30 -81 0
4 30 102 0
-4 -30 -102 0
5 30 123 0
-5 -30 -123 0
6 30 144 0
-6 -30 -144 0
7 30 165 0
-7 -30 -165 0
8 30 186 0
-8 -30 -186 0
9 30 207 0
-9 -30 -207 0
10 30 228 0
-10 -30 -228 0
1 31 40 0
-1 -31 -40 0
2 31 61 0
-2 -31 -61 0
3 31 82 0
-3 -31 -82 0
4 31 103 0
-4 -31 -103 0
5 31 124 0
-5 -31 -124 0
6 31 145 0
-6 -31 -145 0
7 31 166 0
-7 -31 -166 0
8 31 187 0
-8 -31 -187 0
9 31 208 0
-9 -31 -208 0
10 31 229 0
-10 -31 -229 0
1 32 41 0
-1 -32 -41 0
2 32 62 0
-2 -32 -62 0
3 32 83 0
-3 -32 -83 0
4 32 104 0
-4 -32 -104 0
5 32 125 0
-5 -32 -125 0
6 32 146 0
-6 -32 -146 0
7 32 167 0
-7 -32 -167 0
8 32 188 0
-8 -32 -188 0
9 32 209 0
-9 -32 -209 0
10 32 230 0
-10 -32 -230 0
1 33 42 0
-1 -33 -42 0
2 33 63 0
-2 -33 -63 0
3 33 84 0
-3 -33 -84 0
4 33 105 0
-4 -33 -105 0
5 33 126 0
-5 -33 -126 0
6 33 147 0
-6 -33 -147 0
7 33 168 0
-7 -33 -168 0
8 33 189 0
-8 -33 -189 0
9 33 210 0
-9 -33 -210 0
10 33 231 0
-10 -33 -231 0
1 34 43 0
-1 -34 -43 0
2 34 64 0
-2 -34 -64 0
3 34 85 0
-3 -34 -85 0
4 34 106 0
-4 -34 -106 0
5 34 127 0
-5 -34 -127 0
6 34 148 0
-6 -34 -148 0
7 34 169 0
-7 -34 -169 0
8 34 190 0
-8 -34 -190 0
9 34 211 0
-9 -34 -211 0
10 34 232 0
-10 -34 -232 0
1 35 44 0
-1 -35 -44 0
2 35 65 0
-2 -35 -65 0
3 35 86 0
-3 -35 -86 0
4 35 107 0
-4 -35 -107 0
5 35 128 0
-5 -35 -128 0
6 35 149 0
-6 -35 -149 0
7 35 170 0
-7 -35 -170 0
8 35 191 0
-8 -35 -191 0
9 35 212 0
-9 -35 -212 0
10 35 233 0
-10 -35 -233 0
1 36 45 0
-1 -36 -45 0
2 36 66 0
-2 -36 -66 0
3 36 87 0
-3 -36 -87 0
4 36 108 0
-4 -36 -108 0
5 36 129 0
-5 -36 -129 0
6 36 150 0
-6 -36 -150 0
7 36 171 0
-7 -36 -171 0
8 36 192 0
-8 -36 -192 0
9 36 213 0
-9 -36 -213 0
10 36 234 0
-10 -36 -234 0
1 37 46 0
-1 -37 -46 0
2 37 67 0
-2 -37 -67 0
3 37 88 0
-3 -37 -88 0
4 37 109 0
-4 -37 -109 0
5 37 130 0
-5 -37 -130 0
6 37 151 0
-6 -37 -151 0
7 37 172 0
-7 -37 -172 0
8 37 193 0
-8 -37 -193 0
9 37 214 0
-9 -37 -214 0
10 37 235 0
-10 -37 -235 0
1 38 47 0
-1 -38 -47 0
2 38 68 0
-2 -38 -68 0
3 38 89 0
-3 -38 -89 0
4 38 110 0
-4 -38 -110 0
5 38 131 0
-5 -38 -131 0
6 38 152 0
-6 -38 -152 0
7 38 173 0
-7 -38 -173 0
8 38 194 0
-8 -38 -194 0
9 38 215 0
-9 -38 -215 0
1 39 48 0
-1 -39 -48 0
2 39 69 0
-2 -39 -69 0
3 39 90 0
-3 -39 -90 0
4 39 111 0
-4 -39 -111 0
5 39 132 0
-5 -39 -132 0
6 39 153 0
-6 -39 -153 0
7 39 174 0
-7 -39 -174 0
8 39 195 0
-8 -39 -195 0
9 39 216 0
-9 -39 -216 0
1 40 49 0
-1 -40 -49 0
2 40 70 0
-2 -40 -70 0
3 40 91 0
-3 -40 -91 0
4 40 112 0
-4 -40 -112 0
5 40 133 0
-5 -40 -133 0
6 40 154 0
-6 -40 -154 0
7 40 175 0
-7 -40 -175 0
8 40 196 0
-8 -40 -196 0
9 40 217 0
-9 -40 -217 0
1 41 50 0
-1 -41 -50 0
2 41 71 0
-2 -41 -71 0
3 41 92 0
-3 -41 -92 0
4 41 113 0
-4 -41 -113 0
5 41 134 0
-5 -41 -134 0
6 41 155 0
-6 -41 -155 0
7 41 176 0
-7 -41 -176 0
8 41 197 0
-8 -41 -197 0
9 41 218 0
-9 -41 -218 0
1 42 51 0
-1 -42 -51 0
2 42 72 0
-2 -42 -72 0
3 42 93 0
-3 -42 -93 0
4 42 114 0
-4 -42 -114 0
5 42 135 0
-5 -42 -135 0
6 42 156 0
-6 -42 -156 0
7 42 177 0
-7 -42 -177 0
8 42 198 0
-8 -42 -198 0
9 42 219 0
-9 -42 -219 0
1 43 52 0
-1 -43 -52 0
2 43 73 0
-2 -43 -73 0
3 43 94 0
-3 -43 -94 0
4 43 115 0
-4 -43 -115 0
5 43 136 0
-5 -43 -136 0
6 43 157 0
-6 -43 -157 0
7 43 178 0
-7 -43 -178 0
8 43 199 0
-8 -43 -199 0
9 43 220 0
-9 -43 -220 0
1 44 53 0
-1 -44 -53 0
2 44 74 0
-2 -44 -74 0
3 44 95 0
-3 -44 -95 0
4 44 116 0
-4 -44 -116 0
5 44 137 0
-5 -44 -137 0
6 44 158 0
-6 -44 -158 0
7 44 179 0
-7 -44 -179 0
8 44 200 0
-8 -44 -200 0
9 44 221 0
-9 -44 -221 0
1 45 54 0
-1 -45 -54 0
2 45 75 0
-2 -45 -75 0
3 45 96 0
-3 -45 -96 0
4 45 117 0
-4 -45 -117 0
5 45 138 0
-5 -45 -138 0
6 45 159 0
-6 -45 -159 0
7 45 180 0
-7 -45 -180 0
8 45 201 0
-8 -45 -201 0
9 45 222 0
-9 -45 -222 0
1 46 55 0
-1 -46 -55 0
2 46 76 0
-2 -46 -76 0
3 46 97 0
-3 -46 -97 0
4 46 118 0
-4 -46 -118 0
5 46 139 0
-5 -46 -139 0
6 46 160 0
-6 -46 -160 0
7 46 181 0
-7 -46 -181 0
8 46 202 0
-8 -46 -202 0
9 46 223 0
-9 -46 -223 0
1 47 56 0
-1 -47 -56 0
2 47 77 0
-2 -47 -77 0
3 47 98 0
-3 -47 -98 0
4 47 119 0
-4 -47 -119 0
5 47 140 0
-5 -47 -140 0
6 47 161 0
-6 -47 -161 0
7 47 182 0
-7 -47 -182 0
8 47 203 0
-8 -47 -203 0
9 47 224 0
-9 -47 -224 0
1 48 57 0
-1 -48 -57 0
2 48 78 0
-2 -48 -78 0
3 48 99 0
-3 -48 -99 0
4 48 120 0
-4 -48 -120 0
5 48 141 0
-5 -48 -141 0
6 48 162 0
-6 -48 -162 0
7 48 183 0
-7 -48 -183 0
8 48 204 0
-8 -48 -204 0
9 48 225 0
-9 -48 -225 0
1 49 58 0
-1 -49 -58 0
2 49 79 0
-2 -49 -79 0
3 49 100 0
-3 -49 -100 0
4 49 121 0
-4 -49 -121 0
5 49 142 0
-5 -49 -142 0
6 49 163 0
-6 -49 -163 0
7 49 184 0
-7 -49 -184 0
8 49 205 0
-8 -49 -205 0
9 49 226 0
-9 -49 -226 0
1 50 59 0
-1 -50 -59 0
2 50 80 0
-2 -50 -80 0
3 50 101 0
-3 -50 -101 0
4 50 122 0
-4 -50 -122 0
5 50 143 0
-5 -50 -143 0
6 50 164 0
-6 -50 -164 0
7 50 185 0
-7 -50 -185 0
8 50 206 0
-8 -50 -206 0
9 50 227 0
-9 -50 -227 0
1 51 60 0
-1 -51 -60 0
2 51 81 0
-2 -51 -81 0
3 51 102 0
-3 -51 -102 0
4 51 123 0
-4 -51 -123 0
5 51 144 0
-5 -51 -144 0
6 51 165 0
-6 -51 -165 0
7 51 186 0
-7 -51 -186 0
8 51 207 0
-8 -51 -207 0
9 51 228 0
-9 -51 -228 0
1 52 61 0
-1 -52 -61 0
2 52 82 0
-2 -52 -82 0
3 52 103 0
-3 -52 -103 0
4 52 124 0
-4 -52 -124 0
5 52 145 0
-5 -52 -145 0
6 52 166 0
-6 -52 -166 0
7 52 187 0
-7 -52 -187 0
8 52 208 0
-8 -52 -208 0
9 52 229 0
-9 -52 -229 0
1 53 62 0
-1 -53 -62 0
2 53 83 0
-2 -53 -83 0
3 53 104 0
-3 -53 -104 0
4 53 125 0
-4 -53 -125 0
5 53 146 0
-5 -53 -146 0
6 53 167 0
-6 -53 -167 0
7 53 188 0
-7 -53 -188 0
8 53 209 0
-8 -53 -209 0
9 53 230 0
-9 -53 -230 0
1 54 63 0
-1 -54 -63 0
2 54 84 0
-2 -54 -84 0
3 54 105 0
-3 -54 -105 0
4 54 126 0
-4 -54 -126 0
5 54 147 0
-5 -54 -147 0
6 54 168 0
-6 -54 -168 0
7 54 189 0
-7 -54 -189 0
8 54 210 0
-8 -54 -210 0
9 54 231 0
-9 -54 -231 0
1 55 64 0
-1 -55 -64 0
2 55 85 0
-2 -55 -85 0
3 55 106 0
-3 -55 -106 0
4 55 127 0
-4 -55 -127 0
5 55 148 0
-5 -55 -148 0
6 55 169 0
-6 -55 -169 0
7 55 190 0
-7 -55 -190 0
8 55 211 0
-8 -55 -211 0
9 55 232 0
-9 -55 -232 0
1 56 65 0
-1 -56 -65 0
2 56 86 0
-2 -56 -86 0
3 56 107 0
-3 -56 -107 0
4 56 128 0
-4 -56 -128 0
5 56 149 0
-5 -56 -149 0
6 56 170 0
-6 -56 -170 0
7 56 191 0
-7 -56 -191 0
8 56 212 0
-8 -56 -212 0
9 56 233 0
-9 -56 -233 0
1 57 66 0
-1 -57 -66 0
2 57 87 0
-2 -57 -87 0
3 57 108 0
-3 -57 -108 0
4 57 129 0
-4 -57 -129 0
5 57 150 0
-5 -57 -150 0
6 57 171 0
-6 -57 -171 0
7 57 192 0
-7 -57 -192 0
8 57 213 0
-8 -57 -213 0
9 57 234 0
-9 -57 -234 0
1 58 67 0
-1 -58 -67 0
2 58 88 0
-2 -58 -88 0
3 58 109 0
-3 -58 -109 0
4 58 130 0
-4 -58 -130 0
5 58 151 0
-5 -58 -151 0
6 58 172 0
-6 -58 -172 0
7 58 193 0
-7 -58 -193 0
8 58 214 0
-8 -58 -214 0
9 58 235 0
-9 -58 -235 0
1 59 68 0
-1 -59 -68 0
2 59 89 0
-2 -59 -89 0
3 59 110 0
-3 -59 -110 0
4 59 131 0
-4 -59 -131 0
5 59 152 0
-5 -59 -152 0
6 59 173 0
-6 -59 -173 0
7 59 194 0
-7 -59 -194 0
8 59 215 0
-8 -59 -215 0
1 60 69 0
-1 -60 -69 0
2 60 90 0
-2 -60 -90 0
3 60 111 0
-3 -60 -111 0
4 60 132 0
-4 -60 -132 0
5 60 153 0
-5 -60 -153 0
6 60 174 0
-6 -60 -174 0
7 60 195 0
-7 -60 -195 0
8 60 216 0
-8 -60 -216 0
1 61 70 0
-1 -61 -70 0
2 61 91 0
-2 -61 -91 0
3 61 112 0
-3 -61 -112 0
4 61 133 0
-4 -61 -133 0
5 61 154 0
-5 -61 -154 0
6 61 175 0
-6 -61 -175 0
7 61 196 0
-7 -61 -196 0
8 61 217 0
-8 -61 -217 0
1 62 71 0
-1 -62 -71 0
2 62 92 0
-2 -62 -92 0
3 62 113 0
-3 -62 -113 0
4 62 134 0
-4 -62 -134 0
5 62 155 0
-5 -62 -155 0
6 62 176 0
-6 -62 -176 0
7 62 197 0
-7 -62 -197 0
8 62 218 0
-8 -62 -218 0
1 63 72 0
-1 -63 -72 0
2 63 93 0
-2 -63 -93 0
3 63 114 0
-3 -63 -114 0
4 63 135 0
-4 -63 -135 0
5 63 156 0
-5 -63 -156 0
6 63 177 0
-6 -63 -177 0
7 63 198 0
-7 -63 -198 0
8 63 219 0
-8 -63 -219 0
1 64 73 0
-1 -64 -73 0
2 64 94 0
-2 -64 -94 0
3 64 115 0
-3 -64 -115 0
4 64 136 0
-4 -64 -136 0
5 64 157 0
-5 -64 -157 0
6 64 178 0
-6 -64 -178 0
7 64 199 0
-7 -64 -199 0
8 64 220 0
-8 -64 -220 0
1 65 74 0
-1 -65 -74 0
2 65 95 0
-2 -65 -95 0
3 65 116 0
-3 -65 -116 0
4 65 137 0
-4 -65 -137 0
5 65 158 0
-5 -65 -158 0
6 65 179 0
-6 -65 -179 0
7 65 200 0
-7 -65 -200 0
8 65 221 0
-8 -65 -221 0
1 66 75 0
-1 -66 -75 0
2 66 96 0
-2 -66 -96 0
3 66 117 0
-3 -66 -117 0
4 66 138 0
-4 -66 -138 0
5 66 159 0
-5 -66 -159 0
6 66 180 0
-6 -66 -180 0
7 66 201 0
-7 -66 -201 0
8 66 222 0
-8 -66 -222 0
1 67 76 0
-1 -67 -76 0
2 67 97 0
-2 -67 -97 0
3 67 118 0
-3 -67 -118 0
4 67 139 0
-4 -67 -139 0
5 67 160 0
-5 -67 -160 0
6 67 181 0
-6 -67 -181 0
7 67 202 0
-7 -67 -202 0
8 67 223 0
-8 -67 -223 0
1 68 77 0
-1 -68 -77 0
2 68 98 0
-2 -68 -98 0
3 68 119 0
-3 -68 -119 0
4 68 140 0
-4 -68 -140 0
5 68 161 0
-5 -68 -161 0
6 68 182 0
-6 -68 -182 0
7 68 203 0
-7 -68 -203 0
8 68 224 0
-8 -68 -224 0
1 69 78 0
-1 -69 -78 0
2 69 99 0
-2 -69 -99 0
3 69 120 0
-3 -69 -120 0
4 69 141 0
-4 -69 -141 0
5 69 162 0
-5 -69 -162 0
6 69 183 0
-6 -69 -183 0
7 69 204 0
-7 -69 -204 0
8 69 225 0
-8 -69 -225 0
1 70 79 0
-1 -70 -79 0
2 70 100 0
-2 -70 -100 0
3 70 121 0
-3 -70 -121 0
4 70 142 0
-4 -70 -142 0
5 70 163 0
-5 -70 -163 0
6 70 184 0
-6 -70 -184 0
7 70 205 0
-7 -70 -205 0
8 70 226 0
-8 -70 -226 0
1 71 80 0
-1 -71 -80 0
2 71 101 0
-2 -71 -101 0
3 71 122 0
-3 -71 -122 0
4 71 143 0
-4 -71 -143 0
5 71 164 0
-5 -71 -164 0
6 71 185 0
-6 -71 -185 0
7 71 206 0
-7 -71 -206 0
8 71 227 0
-8 -71 -227 0
1 72 81 0
-1 -72 -81 0
2 72 102 0
-2 -72 -102 0
3 72 123 0
-3 -72 -123 0
4 72 144 0
-4 -72 -144 0
5 72 165 0
-5 -72 -165 0
6 72 186 0
-6 -72 -186 0
7 72 207 0
-7 -72 -207 0
8 72 228 0
-8 -72 -228 0
1 73 82 0
-1 -73 -82 0
2 73 103 0
-2 -73 -103 0
3 73 124 0
-3 -73 -124 0
4 73 145 0
-4 -73 -145 0
5 73 166 0
-5 -73 -166 0
6 73 187 0
-6 -73 -187 0
7 73 208 0
-7 -73 -208 0
8 73 229 0
-8 -73 -229 0
1 74 83 0
-1 -74 -83 0
2 74 104 0
-2 -74 -104 0
3 74 125 0
-3 -74 -125 0
4 74 146 0
-4 -74 -146 0
5 74 167 0
-5 -74 -167 0
6 74 188 0
-6 -74 -188 0
7 74 209 0
-7 -74 -209 0
8 74 230 0
-8 -74 -230 0
1 75 84 0
-1 -75 -84 0
2 75 105 0
-2 -75 -105 0
3 75 126 0
-3 -75 -126 0
4 75 147 0
-4 -75 -147 0
5 75 168 0
-5 -75 -168 0
6 75 189 0
-6 -75 -189 0
7 75 210 0
-7 -75 -210 0
8 75 231 0
-8 -75 -231 0
1 76 85 0
-1 -76 -85 0
2 76 106 0
-2 -76 -106 0
3 76 127 0
-3 -76 -127 0
4 76 148 0
-4 -76 -148 0
5 76 169 0
-5 -76 -169 0
6 76 190 0
-6 -76 -190 0
7 76 211 0
-7 -76 -211 0
8 76 232 0
-8 -76 -232 0
1 77 86 0
-1 -77 -86 0
2 77 107 0
-2 -77 -107 0
3 77 128 0
-3 -77 -128 0
4 77 149 0
-4 -77 -149 0
5 77 170 0
-5 -77 -170 0
6 77 191 0
-6 -77 -191 0
7 77 212 0
-7 -77 -212 0
8 77 233 0
-8 -77 -233 0
1 78 87 0
-1 -78 -87 0
2 78 108 0
-2 -78 -108 0
3 78 129 0
-3 -78 -129 0
4 78 150 0
-4 -78 -150 0
5 78 171 0
-5 -78 -171 0
6 78 192 0
-6 -78 -192 0
7 78 213 0
-7 -78 -213 0
8 78 234 0
-8 -78 -234 0
1 79 88 0
-1 -79 -88 0
2 79 109 0
-2 -79 -109 0
3 79 130 0
-3 -79 -130 0
4 79 151 0
-4 -79 -151 0
5 79 172 0
-5 -79 -172 0
6 79 193 0
-6 -79 -193 0
7 79 214 0
-7 -79 -214 0
8 79 235 0
-8 -79 -235 0
1 80 89 0
-1 -80 -89 0
2 80 110 0
-2 -80 -110 0
3 80 131 0
-3 -80 -131 0
4 80 152 0
-4 -80 -152 0
5 80 173 0
-5 -80 -173 0
6 80 194 0
-6 -80 -194 0
7 80 215 0
-7 -80 -215 0
1 81 90 0
-1 -81 -90 0
2 81 111 0
-2 -81 -111 0
3 81 132 0
-3 -81 -132 0
4 81 153 0
-4 -81 -153 0
5 81 174 0
-5 -81 -174 0
6 81 195 0
-6 -81 -195 0
7 81 216 0
-7 -81 -216 0
1 82 91 0
-1 -82 -91 0
2 82 112 0
-2 -82 -112 0
3 82 133 0
-3 -82 -133 0
4 82 154 0
-4 -82 -154 0
5 82 175 0
-5 -82 -175 0
6 82 196 0
-6 -82 -196 0
7 82 217 0
-7 -82 -217 0
1 83 92 0
-1 -83 -92 0
2 83 113 0
-2 -83 -113 0
3 83 134 0
-3 -83 -134 0
4 83 155 0
-4 -83 -155 0
5 83 176 0
-5 -83 -176 0
6 83 197 0
-6 -83 -197 0
7 83 218 0
-7 -83 -218 0
1 84 93 0
-1 -84 -93 0
2 84 114 0
-2 -84 -114 0
3 84 135 0
-3 -84 -135 0
4 84 156 0
-4 -84 -156 0
5 84 177 0
-5 -84 -177 0
6 84 198 0
-6 -84 -198 0
7 84 219 0
-7 -84 -219 0
1 85 94 0
-1 -85 -94 0
2 85 115 0
-2 -85 -115 0
3 85 136 0
-3 -85 -136 0
4 85 157 0
-4 -85 -157 0
5 85 178 0
-5 -85 -178 0
6 85 199 0
-6 -85 -199 0
7 85 220 0
-7 -85 -220 0
1 86 95 0
-1 -86 -95 0
2 86 116 0
-2 -86 -116 0
3 86 137 0
-3 -86 -137 0
4 86 158 0
-4 -86 -158 0
5 86 179 0
-5 -86 -179 0
6 86 200 0
-6 -86 -200 0
7 86 221 0
-7 -86 -221 0
1 87 96 0
-1 -87 -96 0
2 87 117 0
-2 -87 -117 0
3 87 138 0
-3 -87 -138 0
4 87 159 0
-4 -87 -159 0
5 87 180 0
-5 -87 -180 0
6 87 201 0
-6 -87 -201 0
7 87 222 0
-7 -87 -222 0
1 88 97 0
-1 -88 -97 0
2 88 118 0
-2 -88 -118 0
3 88 139 0
-3 -88 -139 0
4 88 160 0
-4 -88 -160 0
5 88 181 0
-5 -88 -181 0
6 88 202 0
-6 -88 -202 0
7 88 223 0
-7 -88 -223 0
1 89 98 0
-1 -89 -98 0
2 89 119 0
-2 -89 -119 0
3 89 140 0
-3 -89 -140 0
4 89 161 0
-4 -89 -161 0
5 89 182 0
-5 -89 -182 0
6 89 203 0
-6 -89 -203 0
7 89 224 0
-7 -89 -224 0
1 90 99 0
-1 -90 -99 0
2 90 120 0
-2 -90 -120 0
3 90 141 0
-3 -90 -141 0
4 90 162 0
-4 -90 -162 0
5 90 183 0
-5 -90 -183 0
6 90 204 0
-6 -90 -204 0
7 90 225 0
-7 -90 -225 0
1 91 100 0
-1 -91 -100 0
2 91 121 0
-2 -91 -121 0
3 91 142 0
-3 -91 -142 0
4 91 163 0
-4 -91 -163 0
5 91 184 0
-5 -91 -184 0
6 91 205 0
-6 -91 -205 0
7 91 226 0
-7 -91 -226 0
1 92 101 0
-1 -92 -101 0
2 92 122 0
-2 -92 -122 0
3 92 143 0
-3 -92 -143 0
4 92 164 0
-4 -92 -164 0
5 92 185 0
-5 -92 -185 0
6 92 206 0
-6 -92 -206 0
7 92 227 0
-7 -92 -227 0
1 93 102 0
-1 -93 -102 0
2 93 123 0
-2 -93 -123 0
3 93 144 0
-3 -93 -144 0
4 93 165 0
-4 -93 -165 0
5 93 186 0
-5 -93 -186 0
6 93 207 0
-6 -93 -207 0
7 93 228 0
-7 -93 -228 0
1 94 103 0
-1 -94 -103 0
2 94 124 0
-2 -94 -124 0
3 94 145 0
-3 -94 -145 0
4 94 166 0
-4 -94 -166 0
5 94 187 0
-5 -94 -187 0
6 94 208 0
-6 -94 -208 0
7 94 229 0
-7 -94 -229 0
1 95 104 0
-1 -95 -104 0
2 95 125 0
-2 -95 -125 0
3 95 146 0
-3 -95 -146 0
4 95 167 0
-4 -95 -167 0
5 95 188 0
-5 -95 -188 0
6 95 209 0
-6 -95 -209 0
7 95 230 0
-7 -95 -230 0
1 96 105 0
-1 -96 -105 0
2 96 126 0
-2 -96 -126 0
3 96 147 0
-3 -96 -147 0
4 96 168 0
-4 -96 -168 0
5 96 189 0
-5 -96 -189 0
6 96 210 0
-6 -96 -210 0
7 96 231 0
-7 -96 -231 0
1 97 106 0
-1 -97 -106 0
2 97 127 0
-2 -97 -127 0
3 97 148 0
-3 -97 -148 0
4 97 169 0
-4 -97 -169 0
5 97 190 0
-5 -97 -190 0
6 97 211 0
-6 -97 -211 0
7 97 232 0
-7 -97 -232 0
1 98 107 0
-1 -98 -107 0
2 98 128 0
-2 -98 -128 0
3 98 149 0
-3 -98 -149 0
4 98 170 0
-4 -98 -170 0
5 98 191 0
-5 -98 -191 0
6 98 212 0
-6 -98 -212 0
7 98 233 0
-7 -98 -233 0
1 99 108 0
-1 -99 -108 0
2 99 129 0
-2 -99 -129 0
3 99 150 0
-3 -99 -150 0
4 99 171 0
-4 -99 -171 0
5 99 192 0
-5 -99 -192 0
6 99 213 0
-6 -99 -213 0
7 99 234 0
-7 -99 -234 0
1 100 109 0
-1 -100 -109 0
2 100 130 0
-2 -100 -130 0
3 100 151 0
-3 -100 -151 0
4 100 172 0
-4 -100 -172 0
5 100 193 0
-5 -100 -193 0
6 100 214 0
-6 -100 -214 0
7 100 235 0
-7 -100 -235 0
1 101 110 0
-1 -101 -110 0
2 101 131 0
-2 -101 -131 0
3 101 152 0
-3 -101 -152 0
4 101 173 0
-4 -101 -173 0
5 101 194 0
-5 -101 -194 0
6 101 215 0
-6 -101 -215 0
1 102 111 0
-1 -102 -111 0
2 102 132 0
-2 -102 -132 0
3 102 153 0
-3 -102 -153 0
4 102 174 0
-4 -102 -174 0
5 102 195 0
-5 -102 -195 0
6 102 216 0
-6 -102 -216 0
1 103 112 0
-1 -103 -112 0
2 103 133 0
-2 -103 -133 0
3 103 154 0
-3 -103 -154 0
4 103 175 0
-4 -103 -175 0
5 103 196 0
-5 -103 -196 0
6 103 217 0
-6 -103 -217 0
1 104 113 0
-1 -104 -113 0
2 104 134 0
-2 -104 -134 0
3 104 155 0
-3 -104 -155 0
4 104 176 0
-4 -104 -176 0
5 104 197 0
-5 -104 -197 0
6 104 218 0
-6 -104 -218 0
1 105 114 0
-1 -105 -114 0
2 105 135 0
-2 -105 -135 0
3 105 156 0
-3 -105 -156 0
4 105 177 0
-4 -105 -177 0
5 105 198 0
-5 -105 -198 0
6 105 219 0
-6 -105 -219 0
1 106 115 0
-1 -106 -115 0
2 106 136 0
-2 -106 -136 0
3 106 157 0
-3 -106 -157 0
4 106 178 0
-4 -106 -178 0
5 106 199 0
-5 -106 -199 0
6 106 220 0
-6 -106 -220 0
1 107 116 0
-1 -107 -116 0
2 107 137 0
-2 -107 -137 0
3 107 158 0
-3 -107 -158 0
4 107 179 0
-4 -107 -179 0
5 107 200 0
-5 -107 -200 0
6 107 221 0
-6 -107 -221 0
1 108 117 0
-1 -108 -117 0
2 108 138 0
-2 -108 -138 0
3 108 159 0
-3 -108 -159 0
4 108 180 0
-4 -108 -180 0
5 108 201 0
-5 -108 -201 0
6 108 222 0
-6 -108 -222 0
1 109 118 0
-1 -109 -118 0
2 109 139 0
-2 -109 -139 0
3 109 160 0
-3 -109 -160 0
4 109 181 0
-4 -109 -181 0
5 109 202 0
-5 -109 -202 0
6 109 223 0
-6 -109 -223 0
1 110 119 0
-1 -110 -119 0
2 110 140 0
-2 -110 -140 0
3 110 161 0
-3 -110 -161 0
4 110 182 0
-4 -110 -182 0
5 110 203 0
-5 -110 -203 0
6 110 224 0
-6 -110 -224 0
1 111 120 0
-1 -111 -120 0
2 111 141 0
-2 -111 -141 0
3 111 162 0
-3 -111 -162 0
4 111 183 0
-4 -111 -183 0
5 111 204 0
-5 -111 -204 0
6 111 225 0
-6 -111 -225 0
1 112 121 0
-1 -112 -121 0
2 112 142 0
-2 -112 -142 0
3 112 163 0
-3 -112 -163 0
4 112 184 0
-4 -112 -184 0
5 112 205 0
-5 -112 -205 0
6 112 226 0
-6 -112 -226 0
1 113 122 0
-1 -113 -122 0
2 113 143 0
-2 -113 -143 0
3 113 164 0
-3 -113 -164 0
4 113 185 0
-4 -113 -185 0
5 113 206 0
-5 -113 -206 0
6 113 227 0
-6 -113 -227 0
1 114 123 0
-1 -114 -123 0
2 114 144 0
-2 -114 -144 0
3 114 165 0
-3 -114 -165 0
4 114 186 0
-4 -114 -186 0
5 114 207 0
-5 -114 -207 0
6 114 228 0
-6 -114 -228 0
1 115 124 0
-1 -115 -124 0
2 115 145 0
-2 -115 -145 0
3 115 166 0
-3 -115 -166 0
4 115 187 0
-4 -115 -187 0
5 115 208 0
-5 -115 -208 0
6 115 229 0
-6 -115 -229 0
1 116 125 0
-1 -116 -125 0
2 116 146 0
-2 -116 -146 0
3 116 167 0
-3 -116 -167 0
4 116 188 0
-4 -116 -188 0
5 116 209 0
-5 -116 -209 0
6 116 230 0
-6 -116 -230 0
1 117 126 0
-1 -117 -126 0
2 117 147 0
-2 -117 -147 0
3 117 168 0
-3 -117 -168 0
4 117 189 0
-4 -117 -189 0
5 117 210 0
-5 -117 -210 0
6 117 231 0
-6 -117 -231 0
1 118 127 0
-1 -118 -127 0
2 118 148 0
-2 -118 -148 0
3 118 169 0
-3 -118 -169 0
4 118 190 0
-4 -118 -190 0
5 118 211 0
-5 -118 -211 0
6 118 232 0
-6 -118 -232 0
1 119 128 0
-1 -119 -128 0
2 119 149 0
-2 -119 -149 0
3 119 170 0
-3 -119 -170 0
4 119 191 0
-4 -119 -191 0
5 119 212 0
-5 -119 -212 0
6 119 233 0
-6 -119 -233 0
1 120 129 0
-1 -120 -129 0
2 120 150 0
-2 -120 -150 0
3 120 171 0
-3 -120 -171 0
4 120 192 0
-4 -120 -192 0
5 120 213 0
-5 -120 -213 0
6 120 234 0
-6 -120 -234 0
1 121 130 0
-1 -121 -130 0
2 121 151 0
-2 -121 -151 0
3 121 172 0
-3 -121 -172 0
4 121 193 0
-4 -121 -193 0
5 121 214 0
-5 -121 -214 0
6 121 235 0
-6 -121 -235 0
1 122 131 0
-1 -122 -131 0
2 122 152 0
-2 -122 -152 0
3 122 173 0
-3 -122 -173 0
4 122 194 0
-4 -122 -194 0
5 122 215 0
-5 -122 -215 0
1 123 132 0
-1 -123 -132 0
2 123 153 0
-2 -123 -153 0
3 123 174 0
-3 -123 -174 0
4 123 195 0
-4 -123 -195 0
5 123 216 0
-5 -123 -216 0
1 124 133 0
-1 -124 -133 0
2 124 154 0
-2 -124 -154 0
3 124 175 0
-3 -124 -175 0
4 124 196 0
-4 -124 -196 0
5 124 217 0
-5 -124 -217 0
1 125 134 0
-1 -125 -134 0
2 125 155 0
-2 -125 -155 0
3 125 176 0
-3 -125 -176 0
4 125 197 0
-4 -125 -197 0
5 125 218 0
-5 -125 -218 0
1 126 135 0
-1 -126 -135 0
2 126 156 0
-2 -126 -156 0
3 126 177 0
-3 -126 -177 0
4 126 198 0
-4 -126 -198 0
5 126 219 0
-5 -126 -219 0
1 127 136 0
-1 -127 -136 0
2 127 157 0
-2 -127 -157 0
3 127 178 0
-3 -127 -178 0
4 127 199 0
-4 -127 -199 0
5 127 220 0
-5 -127 -220 0
1 128 137 0
-1 -128 -137 0
2 128 158 0
-2 -128 -158 0
3 128 179 0
-3 -128 -179 0
4 128 200 0
-4 -128 -200 0
5 128 221 0
-5 -128 -221 0
1 129 138 0
-1 -129 -138 0
2 129 159 0
-2 -129 -159 0
3 129 180 0
-3 -129 -180 0
4 129 201 0
-4 -129 -201 0
5 129 222 0
-5 -129 -222 0
1 130 139 0
-1 -130 -139 0
2 130 160 0
-2 -130 -160 0
3 130 181 0
-3 -130 -181 0
4 130 202 0
-4 -130 -202 0
5 130 223 0
-5 -130 -223 0
1 131 140 0
-1 -131 -140 0
2 131 161 0
-2 -131 -161 0
3 131 182 0
-3 -131 -182 0
4 131 203 0
-4 -131 -203 0
5 131 224 0
-5 -131 -224 0
1 132 141 0
-1 -132 -141 0
2 132 162 0
-2 -132 -162 0
3 132 183 0
-3 -132 -183 0
4 132 204 0
-4 -132 -204 0
5 132 225 0
-5 -132 -225 0
1 133 142 0
-1 -133 -142 0
2 133 163 0
-2 -133 -163 0
3 133 184 0
-3 -133 -184 0
4 133 205 0
-4 -133 -205 0
5 133 226 0
-5 -133 -226 0
1 134 143 0
-1 -134 -143 0
2 134 164 0
-2 -134 -164 0
3 134 185 0
-3 -134 -185 0
4 134 206 0
-4 -134 -206 0
5 134 227 0
-5 -134 -227 0
1 135 144 0
-1 -135 -144 0
2 135 165 0
-2 -135 -165 0
3 135 186 0
-3 -135 -186 0
4 135 207 0
-4 -135 -207 0
5 135 228 0
-5 -135 -228 0
1 136 145 0
-1 -136 -145 0
2 136 166 0
-2 -136 -166 0
3 136 187 0
-3 -136 -187 0
4 136 208 0
-4 -136 -208 0
5 136 229 0
-5 -136 -229 0
1 137 146 0
-1 -137 -146 0
2 137 167 0
-2 -137 -167 0
3 137 188 0
-3 -137 -188 0
4 137 209 0
-4 -137 -209 0
5 137 230 0
-5 -137 -230 0
1 138 147 0
-1 -138 -147 0
2 138 168 0
-2 -138 -168 0
3 138 189 0
-3 -138 -189 0
4 138 210 0
-4 -138 -210 0
5 138 231 0
-5 -138 -231 0
1 139 148 0
-1 -139 -148 0
2 139 169 0
-2 -139 -169 0
3 139 190 0
-3 -139 -190 0
4 139 211 0
-4 -139 -211 0
5 139 232 0
-5 -139 -232 0
1 140 149 0
-1 -140 -149 0
2 140 170 0
-2 -140 -170 0
3 140 191 0
-3 -140 -191 0
4 140 212 0
-4 -140 -212 0
5 140 233 0
-5 -140 -233 0
1 141 150 0
-1 -141 -150 0
2 141 171 0
-2 -141 -171 0
3 141 192 0
-3 -141 -192 0
4 141 213 0
-4 -141 -213 0
5 141 234 0
-5 -141 -234 0
1 142 151 0
-1 -142 -151 0
2 142 172 0
-2 -142 -172 0
3 142 193 0
-3 -142 -193 0
4 142 214 0
-4 -142 -214 0
5 142 235 0
-5 -142 -235 0
1 143 152 0
-1 -143 -152 0
2 143 173 0
-2 -143 -173 0
3 143 194 0
-3 -143 -194 0
4 143 215 0
-4 -143 -215 0
1 144 153 0
-1 -144 -153 0
2 144 174 0
-2 -144 -174 0
3 144 195 0
-3 -144 -195 0
4 144 216 0
-4 -144 -216 0
1 145 154 0
-1 -145 -154 0
2 145 175 0
-2 -145 -175 0
3 145 196 0
-3 -145 -196 0
4 145 217 0
-4 -145 -217 0
1 146 155 0
-1 -146 -155 0
2 146 176 0
-2 -146 -176 0
3 146 197 0
-3 -146 -197 0
4 146 218 0
-4 -146 -218 0
1 147 156 0
-1 -147 -156 0
2 147 177 0
-2 -147 -177 0
3 147 198 0
-3 -147 -198 0
4 147 219 0
-4 -147 -219 0
1 148 157 0
-1 -148 -157 0
2 148 178 0
-2 -148 -178 0
3 148 199 0
-3 -148 -199 0
4 148 220 0
-4 -148 -220 0
1 149 158 0
-1 -149 -158 0
2 149 179 0
-2 -149 -179 0
3 149 200 0
-3 -149 -200 0
4 149 221 0
-4 -149 -221 0
1 150 159 0
-1 -150 -159 0
2 150 180 0
-2 -150 -180 0
3 150 201 0
-3 -150 -201 0
4 150 222 0
-4 -150 -222 0
1 151 160 0
-1 -151 -160 0
2 151 181 0
-2 -151 -181 0
3 151 202 0
-3 -151 -202 0
4 151 223 0
-4 -151 -223 0
1 152 161 0
-1 -152 -161 0
2 152 182 0
-2 -152 -182 0
3 152 203 0
-3 -152 -203 0
4 152 224 0
-4 -152 -224 0
1 153 162 0
-1 -153 -162 0
2 153 183 0
-2 -153 -183 0
3 153 204 0
-3 -153 -204 0
4 153 225 0
-4 -153 -225 0
1 154 163 0
-1 -154 -163 0
2 154 184 0
-2 -154 -184 0
3 154 205 0
-3 -154 -205 0
4 154 226 0
-4 -154 -226 0
1 155 164 0
-1 -155 -164 0
2 155 185 0
-2 -155 -185 0
3 155 206 0
-3 -155 -206 0
4 155 227 0
-4 -155 -227 0
1 156 165 0
-1 -156 -165 0
2 156 186 0
-2 -156 -186 0
3 156 207 0
-3 -156 -207 0
4 156 228 0
-4 -156 -228 0
1 157 166 0
-1 -157 -166 0
2 157 187 0
-2 -157 -187 0
3 157 208 0
-3 -157 -208 0
4 157 229 0
-4 -157 -229 0
1 158 167 0
-1 -158 -167 0
2 158 188 0
-2 -158 -188 0
3 158 209 0
-3 -158 -209 0
4 158 230 0
-4 -158 -230 0
1 159 168 0
-1 -159 -168 0
2 159 189 0
-2 -159 -189 0
3 159 210 0
-3 -159 -210 0
4 159 231 0
-4 -159 -231 0
1 160 169 0
-1 -160 -169 0
2 160 190 0
-2 -160 -190 0
3 160 211 0
-3 -160 -211 0
4 160 232 0
-4 -160 -232 0
1 161 170 0
-1 -161 -170 0
2 161 191 0
-2 -161 -191 0
3 161 212 0
-3 -161 -212 0
4 161 233 0
-4 -161 -233 0
1 162 171 0
-1 -162 -171 0
2 162 192 0
-2 -162 -192 0
3 162 213 0
-3 -162 -213 0
4 162 234 0
-4 -162 -234 0
1 163 172 0
-1 -163 -172 0
2 163 193 0
-2 -163 -193 0
3 163 214 0
-3 -163 -214 0
4 163 235 0
-4 -163 -235 0
1 164 173 0
-1 -164 -173 0
2 164 194 0
-2 -164 -194 0
3 164 215 0
-3 -164 -215 0
1 165 174 0
-1 -165 -174 0
2 165 195 0
-2 -165 -195 0
3 165 216 0
-3 -165 -216 0
1 166 175 0
-1 -166 -175 0
2 166 196 0
-2 -166 -196 0
3 166 217 0
-3 -166 -217 0
1 167 176 0
-1 -167 -176 0
2 167 197 0
-2 -167 -197 0
3 167 218 0
-3 -167 -218 0
1 168 177 0
-1 -168 -177 0
2 168 198 0
-2 -168 -198 0
3 168 219 0
-3 -168 -219 0
1 169 178 0
-1 -169 -178 0
2 169 199 0
-2 -169 -199 0
3 169 220 0
-3 -169 -220 0
1 170 179 0
-1 -170 -179 0
2 170 200 0
-2 -170 -200 0
3 170 221 0
-3 -170 -221 0
1 171 180 0
-1 -171 -180 0
2 171 201 0
-2 -171 -201 0
3 171 222 0
-3 -171 -222 0
1 172 181 0
-1 -172 -181 0
2 172 202 0
-2 -172 -202 0
3 172 223 0
-3 -172 -223 0
1 173 182 0
-1 -173 -182 0
2 173 203 0
-2 -173 -203 0
3 173 224 0
-3 -173 -224 0
1 174 183 0
-1 -174 -183 0
2 174 204 0
-2 -174 -204 0
3 174 225 0
-3 -174 -225 0
1 175 184 0
-1 -175 -184 0
2 175 205 0
-2 -175 -205 0
3 175 226 0
-3 -175 -226 0
1 176 185 0
-1 -176 -185 0
2 176 206 0
-2 -176 -206 0
3 176 227 0
-3 -176 -227 0
1 177 186 0
-1 -177 -186 0
2 177 207 0
-2 -177 -207 0
3 177 228 0
-3 -177 -228 0
1 178 187 0
-1 -178 -187 0
2 178 208 0
-2 -178 -208 0
3 178 229 0
-3 -178 -229 0
1 179 188 0
-1 -179 -188 0
2 179 209 0
-2 -179 -209 0
3 179 230 0
-3 -179 -230 0
1 180 189 0
-1 -180 -189 0
2 180 210 0
-2 -180 -210 0
3 180 231 0
-3 -180 -231 0
1 181 190 0
-1 -181 -190 0
2 181 211 0
-2 -181 -211 0
3 181 232 0
-3 -181 -232 0
1 182 191 0
-1 -182 -191 0
2 182 212 0
-2 -182 -212 0
3 182 233 0
-3 -182 -233 0
1 183 192 0
-1 -183 -192 0
2 183 213 0
-2 -183 -213 0
3 183 234 0
-3 -183 -234 0
1 184 193 0
-1 -184 -193 0
2 184 214 0
-2 -184 -214 0
3 184 235 0
-3 -184 -235 0
1 185 194 0
-1 -185 -194 0
2 185 215 0
-2 -185 -215 0
1 186 195 0
-1 -186 -195 0
2 186 216 0
-2 -186 -216 0
1 187 196 0
-1 -187 -196 0
2 187 217 0
-2 -187 -217 0
1 188 197 0
-1 -188 -197 0
2 188 218 0
-2 -188 -218 0
1 189 198 0
-1 -189 -198 0
2 189 219 0
-2 -189 -219 0
1 190 199 0
-1 -190 -199 0
2 190 220 0
-2 -190 -220 0
1 191 200 0
-1 -191 -200 0
2 191 221 0
-2 -191 -221 0
1 192 201 0
-1 -192 -201 0
2 192 222 0
-2 -192 -222 0
1 193 202 0
-1 -193 -202 0
2 193 223 0
-2 -193 -223 0
1 194 203 0
-1 -194 -203 0
2 194 224 0
-2 -194 -224 0
1 195 204 0
-1 -195 -204 0
2 195 225 0
-2 -195 -225 0
1 196 205 0
-1 -196 -205 0
2 196 226 0
-2 -196 -226 0
1 197 206 0
-1 -197 -206 0
2 197 227 0
-2 -197 -227 0
1 198 207 0
-1 -198 -207 0
2 198 228 0
-2 -198 -228 0
1 199 208 0
-1 -199 -208 0
2 199 229 0
-2 -199 -229 0
1 200 209 0
-1 -200 -209 0
2 200 230 0
-2 -200 -230 0
1 201 210 0
-1 -201 -210 0
2 201 231 0
-2 -201 -231 0
1 202 211 0
-1 -202 -211 0
2 202 232 0
-2 -202 -232 0
1 203 212 0
-1 -203 -212 0
2 203 233 0
-2 -203 -233 0
1 204 213 0
-1 -204 -213 0
2 204 234 0
-2 -204 -234 0
1 205 214 0
-1 -205 -214 0
2 205 235 0
-2 -205 -235 0
1 206 215 0
-1 -206 -215 0
1 207 216 0
-1 -207 -216 0
1 208 217 0
-1 -208 -217 0
1 209 218 0
-1 -209 -218 0
1 210 219 0
-1 -210 -219 0
1 211 220 0
-1 -211 -220 0
1 212 221 0
-1 -212 -221 0
1 213 222 0
-1 -213 -222 0
1 214 223 0
-1 -214 -223 0
1 215 224 0
-1 -215 -224 0
1 216 225 0
-1 -216 -225 0
1 217 226 0
-1 -217 -226 0
1 218 227 0
-1 -218 -227 0
1 219 228 0
-1 -219 -228 0
1 220 229 0
-1 -220 -229 0
1 221 230 0
-1 -221 -230 0
1 222 231 0
-1 -222 -231 0
1 223 232 0
-1 -223 -232 0
1 224 233 0
-1 -224 -233 0
1 225 234 0
-1 -225 -234 0
1 226 235 0
-1 -226 -235 0
