certificates/rado_a21_c12_N235.drat
1 -229 11 0
-1 -235 0
-9 -235 0
-235 0
-10 0
1 0
208 0
37 0
-217 0
-199 0
-46 0
-28 0
19 0
229 0
-220 0
226 0
22 0
-31 0
-13 0
211 0
-202 0
4 0
8 0
-73 0
-76 0
-160 0
-91 0
-94 0
-109 0
-136 0
-139 0
-154 0
-157 0
-80 0
-17 0
-164 0
-175 0
-178 0
-193 0
-52 0
-70 0
-55 0
2 0
6 0
3 0
5 0
215 0
-11 0
-32 0
-7 0
-67 0
-185 0
-158 0
-196 0
-49 0
-181 0
-74 0
-34 0
-38 0
-115 0
-116 0
-15 0
-36 0
-120 0
-162 0
-133 0
-151 0
-97 0
-112 0
-101 0
-122 0
-118 0
-78 0
-53 0
-12 0
-33 0
-54 0
-75 0
-117 0
-159 0
-57 0
-88 0
-59 0
-95 0
-96 0
-14 0
-35 0
-56 0
-98 0
-119 0
-161 0
-99 0
-130 0
-77 0
-224 0
-206 0
-143 0
230 0
16 0
209 0
232 0
142 0
205 0
145 0
146 0
163 0
166 0
167 0
43 0
0
